n_res = 4;
rc = [ 46, 40, 37, 46 ];
n_tasks = 30;
d = [ 7, 9, 9, 6, 1, 3, 3, 2, 2, 10, 5, 5, 4, 7, 1, 5, 3, 6, 2, 10, 8, 7, 4, 7, 1, 4, 5, 6, 7, 4 ];
rr = [| 46, 46, 46, 46, 46, 46, 46, 46, 46, 46, 46, 46, 46, 46, 46, 46, 46, 46, 46, 46, 46, 46, 46, 46, 46, 46, 46, 46, 46, 46
      | 40, 40, 40, 40, 40, 40, 40, 40, 40, 40, 40, 40, 40, 40, 40, 40, 40, 40, 40, 40, 40, 40, 40, 40, 40, 40, 40, 40, 40, 40
      | 37, 37, 37, 37, 37, 37, 37, 37, 37, 37, 37, 37, 37, 37, 37, 37, 37, 37, 37, 37, 37, 37, 37, 37, 37, 37, 37, 37, 37, 37
      | 46, 46, 46, 46, 46, 46, 46, 46, 46, 46, 46, 46, 46, 46, 46, 46, 46, 46, 46, 46, 46, 46, 46, 46, 46, 46, 46, 46, 46, 46|];
suc = [ { 4, 10, 14 },
       { 16 },
       { 7, 11, 13 },
       { 5, 6, 8 },
       { 11 },
       { 12, 19 },
       { 21 },
       { 9 },
       { 18 },
       { 11, 17 },
       { 29 },
       { 15, 23 },
       { 18 },
       { 20, 24 },
       { 22 },
       { 26 },
       { 18 },
       { 28 },
       { 23, 29 },
       { 21, 23 },
       { 22, 25 },
       { 27 },
       { 25 },
       { 27 },
       { 28 },
       { 27, 28, 30 },
       { 29 },
       {  },
       {  },
       {  } ];
